param n := 6; # number of vertices
set V := 1 2 3 4 5 6; # set of vertices
set A := (2,1) (1,3) (3,1) (1,4) (4,1) (2,5) (2,6) (6,2) (3,4) (4,3) (3,5) (5,3) (4,5) (5,4) (5,6); # set of arcs
param w := # weight function
[2,1] 5
[1,3] 5
[3,1] 5
[1,4] 4
[4,1] 4
[2,5] 2
[2,6] 3
[6,2] 3
[3,4] 3
[4,3] 3
[3,5] 8
[5,3] 8
[4,5] 4
[5,4] 4
[5,6] 4;

end;


